N: 2000
R: 1000
Capacities: 495187
------
Total value: 495187
Total weight: 495187
Packed Items: [0, 1, 2, 3, 4, 5, 6, 7, 8, 9, 10, 11, 12, 13, 14, 15, 16, 17, 18, 19, 20, 21, 22, 23, 24, 25, 26, 27, 28, 29, 30, 31, 32, 33, 34, 35, 36, 37, 38, 39, 40, 41, 42, 43, 44, 45, 46, 47, 48, 49, 50, 51, 52, 53, 54, 55, 56, 57, 58, 59, 60, 61, 62, 63, 64, 65, 66, 67, 68, 69, 70, 71, 72, 73, 74, 75, 76, 77, 78, 79, 80, 81, 82, 83, 84, 85, 86, 87, 88, 89, 90, 91, 92, 93, 94, 95, 96, 97, 98, 99, 100, 101, 102, 103, 104, 105, 106, 107, 108, 109, 110, 111, 112, 113, 114, 115, 116, 117, 118, 119, 120, 121, 122, 123, 124, 125, 126, 127, 128, 129, 130, 131, 132, 133, 134, 135, 136, 137, 138, 139, 140, 141, 142, 143, 144, 145, 146, 147, 148, 149, 150, 151, 152, 153, 154, 155, 156, 157, 158, 159, 160, 161, 162, 163, 164, 165, 166, 167, 168, 169, 170, 171, 172, 173, 174, 175, 176, 177, 178, 179, 180, 181, 182, 183, 184, 185, 186, 187, 188, 189, 190, 191, 192, 193, 194, 195, 196, 197, 198, 199, 200, 201, 202, 203, 204, 205, 206, 207, 208, 209, 210, 211, 212, 213, 214, 215, 216, 217, 218, 219, 220, 221, 222, 223, 224, 225, 226, 227, 228, 229, 230, 231, 232, 233, 234, 235, 236, 237, 238, 239, 240, 241, 242, 243, 244, 245, 246, 247, 248, 249, 250, 251, 252, 253, 254, 255, 256, 257, 258, 259, 260, 261, 262, 263, 264, 265, 266, 267, 268, 269, 270, 271, 272, 273, 274, 275, 276, 277, 278, 279, 280, 281, 282, 283, 284, 285, 286, 287, 288, 289, 290, 291, 292, 293, 294, 295, 296, 297, 298, 299, 300, 301, 302, 303, 304, 305, 306, 307, 308, 309, 310, 311, 312, 313, 314, 315, 316, 317, 318, 319, 320, 321, 322, 323, 324, 325, 326, 327, 328, 329, 330, 331, 332, 333, 334, 335, 336, 337, 338, 339, 340, 341, 342, 343, 344, 345, 346, 347, 348, 349, 350, 351, 352, 353, 354, 355, 356, 357, 358, 359, 360, 361, 362, 363, 364, 365, 366, 367, 368, 369, 370, 371, 372, 373, 374, 375, 376, 377, 378, 379, 380, 381, 382, 383, 384, 385, 386, 387, 388, 389, 390, 391, 392, 393, 394, 395, 396, 397, 398, 399, 400, 401, 402, 403, 404, 405, 406, 407, 408, 409, 410, 411, 412, 413, 414, 415, 416, 417, 418, 419, 420, 421, 422, 423, 424, 425, 426, 427, 428, 429, 430, 431, 432, 433, 434, 435, 436, 437, 438, 439, 440, 441, 442, 443, 444, 445, 446, 447, 448, 449, 450, 451, 452, 453, 454, 455, 456, 457, 458, 459, 460, 461, 462, 463, 464, 465, 466, 467, 468, 469, 470, 471, 472, 473, 474, 475, 476, 477, 478, 479, 480, 481, 482, 483, 484, 485, 486, 487, 488, 489, 490, 491, 492, 493, 494, 495, 496, 497, 498, 499, 500, 501, 502, 503, 504, 505, 506, 507, 508, 509, 510, 511, 512, 513, 514, 515, 516, 517, 518, 519, 520, 521, 522, 523, 524, 525, 526, 527, 528, 529, 530, 531, 532, 533, 534, 535, 536, 537, 538, 539, 540, 541, 542, 543, 544, 545, 546, 547, 548, 549, 550, 551, 552, 553, 554, 555, 556, 557, 558, 559, 560, 561, 562, 563, 564, 565, 566, 567, 568, 569, 570, 571, 572, 573, 574, 575, 576, 577, 578, 579, 580, 581, 582, 583, 584, 585, 586, 587, 588, 589, 590, 591, 592, 593, 594, 595, 596, 597, 598, 599, 600, 601, 602, 603, 604, 605, 606, 607, 608, 609, 610, 611, 612, 613, 614, 615, 616, 617, 618, 619, 620, 621, 622, 623, 624, 625, 626, 627, 628, 629, 630, 631, 632, 633, 634, 635, 636, 637, 638, 639, 640, 641, 642, 643, 644, 645, 646, 647, 648, 649, 650, 651, 652, 653, 654, 655, 656, 657, 658, 659, 660, 661, 662, 663, 664, 665, 666, 667, 668, 669, 670, 671, 672, 673, 674, 675, 676, 677, 678, 679, 680, 681, 682, 683, 684, 685, 686, 687, 688, 689, 690, 691, 692, 693, 694, 695, 696, 697, 698, 699, 700, 701, 702, 703, 704, 705, 706, 707, 708, 709, 710, 711, 712, 713, 714, 715, 716, 717, 718, 719, 720, 721, 722, 723, 724, 725, 726, 727, 728, 729, 730, 731, 732, 733, 734, 735, 736, 737, 738, 739, 740, 741, 742, 743, 744, 745, 746, 747, 748, 749, 750, 751, 752, 753, 754, 755, 756, 757, 758, 759, 760, 761, 762, 763, 764, 765, 766, 767, 768, 769, 770, 771, 772, 773, 774, 775, 776, 777, 778, 779, 780, 781, 782, 783, 784, 785, 786, 787, 788, 789, 790, 791, 792, 793, 794, 795, 796, 797, 798, 799, 800, 801, 802, 803, 804, 805, 806, 807, 808, 809, 810, 811, 812, 813, 814, 815, 816, 817, 818, 819, 820, 821, 822, 823, 824, 825, 826, 827, 828, 829, 830, 831, 832, 833, 834, 835, 836, 837, 838, 839, 840, 841, 842, 843, 844, 845, 846, 847, 848, 849, 850, 851, 852, 853, 854, 855, 856, 857, 858, 859, 860, 861, 862, 863, 864, 865, 866, 867, 868, 869, 870, 871, 872, 873, 875, 876, 877, 878, 879, 880, 881, 882, 883, 884, 885, 886, 887, 888, 889, 890, 891, 892, 893, 894, 895, 896, 897, 898, 899, 900, 901, 902, 903, 904, 905, 906, 907, 908, 909, 910, 911, 912, 913, 914, 915, 916, 917, 918, 919, 920, 921, 922, 923, 924, 925, 926, 927, 928, 929, 930, 931, 932, 933, 934, 935, 936, 937, 938, 939, 940, 941, 942, 943, 944, 945, 946, 947, 948, 949, 950, 951, 952, 953, 954, 955, 956, 957, 958, 959, 960, 961, 962, 963, 964, 965, 966, 967, 968, 969, 970, 971, 972, 973, 975, 976, 977, 978, 979, 980, 981, 982, 983, 984, 985, 986, 987, 988, 989, 990, 991, 992, 993, 994, 995, 996, 997, 998, 999, 1000, 1001, 1002, 1003, 1004, 1005, 1006, 1007, 1008, 1009, 1010, 1011, 1012, 1013, 1014, 1016, 1017, 1018, ]
Packed Weights: [464, 374, 139, 867, 7, 503, 899, 81, 555, 617, 41, 380, 704, 453, 726, 158, 239, 111, 507, 924, 591, 775, 384, 747, 102, 292, 675, 726, 422, 88, 267, 210, 282, 810, 200, 887, 880, 55, 379, 492, 24, 425, 907, 113, 597, 122, 579, 896, 204, 9, 84, 540, 18, 85, 497, 921, 421, 399, 639, 94, 580, 173, 609, 959, 55, 556, 607, 150, 269, 995, 998, 122, 706, 951, 237, 612, 44, 366, 675, 591, 775, 87, 348, 865, 585, 452, 403, 987, 575, 19, 800, 329, 434, 214, 445, 325, 89, 630, 104, 785, 26, 781, 808, 498, 710, 249, 738, 426, 231, 965, 401, 373, 860, 370, 668, 172, 844, 259, 51, 976, 173, 947, 987, 607, 12, 61, 209, 389, 612, 967, 355, 141, 562, 138, 87, 556, 696, 66, 452, 704, 765, 384, 888, 170, 716, 772, 881, 495, 100, 49, 529, 174, 630, 85, 781, 223, 14, 176, 457, 560, 389, 174, 483, 947, 536, 942, 29, 994, 889, 545, 524, 538, 910, 66, 643, 543, 301, 725, 721, 104, 700, 454, 491, 637, 53, 603, 374, 879, 232, 824, 730, 625, 876, 36, 597, 614, 679, 407, 69, 190, 609, 182, 65, 355, 471, 536, 26, 776, 334, 783, 9, 955, 591, 977, 987, 833, 107, 349, 232, 780, 193, 222, 111, 121, 939, 977, 373, 742, 468, 523, 370, 635, 237, 257, 518, 198, 440, 944, 23, 104, 800, 58, 252, 852, 606, 221, 59, 276, 301, 801, 976, 787, 902, 931, 877, 920, 968, 95, 318, 248, 605, 492, 347, 838, 400, 209, 277, 462, 611, 569, 440, 187, 403, 326, 171, 544, 189, 712, 659, 138, 626, 338, 448, 607, 762, 884, 734, 212, 542, 336, 20, 553, 471, 867, 324, 834, 515, 100, 717, 285, 534, 72, 11, 921, 43, 150, 164, 97, 825, 996, 650, 396, 889, 507, 135, 691, 359, 270, 321, 386, 183, 613, 869, 571, 10, 685, 21, 479, 866, 678, 909, 755, 273, 144, 452, 680, 233, 332, 749, 348, 601, 546, 929, 27, 187, 779, 670, 97, 135, 211, 544, 903, 217, 203, 686, 424, 847, 999, 937, 716, 497, 61, 809, 399, 464, 633, 965, 556, 918, 965, 85, 355, 889, 768, 970, 187, 532, 933, 540, 671, 975, 174, 57, 854, 582, 201, 833, 284, 130, 298, 37, 406, 780, 455, 965, 42, 174, 144, 575, 200, 668, 524, 581, 845, 790, 923, 153, 380, 961, 397, 286, 482, 181, 849, 637, 95, 965, 521, 254, 613, 950, 347, 14, 198, 59, 529, 312, 852, 207, 16, 465, 124, 311, 226, 179, 637, 937, 371, 639, 324, 916, 553, 30, 742, 210, 47, 20, 841, 710, 359, 558, 706, 76, 706, 709, 943, 60, 573, 509, 847, 365, 663, 898, 349, 516, 894, 35, 975, 313, 458, 288, 798, 533, 748, 104, 881, 821, 681, 223, 260, 453, 66, 954, 408, 954, 183, 649, 799, 645, 424, 20, 436, 391, 945, 974, 957, 981, 169, 30, 293, 8, 119, 578, 201, 611, 381, 275, 970, 187, 883, 527, 663, 145, 745, 890, 199, 473, 654, 475, 753, 645, 315, 682, 774, 464, 591, 635, 477, 89, 408, 778, 724, 75, 479, 588, 533, 150, 647, 698, 536, 940, 578, 13, 285, 703, 80, 966, 700, 765, 170, 7, 874, 511, 443, 519, 769, 373, 773, 162, 981, 696, 319, 478, 882, 326, 700, 910, 961, 256, 795, 609, 809, 70, 413, 452, 815, 453, 43, 210, 832, 883, 574, 80, 774, 867, 288, 482, 291, 54, 734, 159, 88, 910, 97, 760, 816, 251, 373, 223, 709, 974, 744, 494, 538, 409, 715, 270, 246, 697, 255, 989, 728, 184, 22, 599, 135, 500, 601, 809, 389, 547, 815, 135, 336, 809, 359, 931, 84, 85, 364, 465, 368, 221, 448, 895, 938, 627, 257, 583, 158, 63, 795, 268, 161, 820, 123, 237, 152, 893, 682, 181, 72, 907, 129, 715, 691, 589, 479, 416, 282, 647, 151, 477, 261, 368, 891, 568, 646, 648, 2, 784, 875, 747, 523, 846, 945, 277, 165, 338, 19, 236, 83, 9, 400, 7, 481, 851, 714, 53, 728, 191, 806, 644, 545, 437, 981, 210, 899, 205, 95, 216, 38, 831, 185, 574, 275, 359, 786, 550, 268, 746, 144, 41, 695, 853, 766, 698, 931, 927, 568, 178, 580, 427, 709, 349, 73, 194, 143, 733, 689, 533, 318, 729, 448, 495, 197, 997, 443, 472, 208, 448, 471, 426, 745, 335, 623, 671, 136, 823, 71, 258, 832, 120, 276, 413, 946, 969, 218, 641, 830, 515, 315, 153, 70, 45, 48, 725, 592, 68, 937, 986, 415, 363, 876, 666, 746, 183, 729, 443, 56, 49, 265, 235, 269, 912, 398, 208, 105, 56, 406, 421, 80, 517, 345, 20, 474, 158, 181, 753, 429, 357, 555, 734, 628, 950, 716, 342, 954, 16, 189, 122, 382, 354, 390, 633, 348, 483, 678, 927, 958, 369, 386, 992, 840, 878, 115, 290, 425, 310, 464, 945, 388, 506, 324, 589, 546, 182, 60, 753, 831, 339, 200, 102, 624, 579, 936, 678, 574, 595, 910, 921, 168, 123, 129, 13, 852, 964, 501, 761, 663, 657, 393, 958, 308, 101, 53, 788, 781, 853, 800, 227, 364, 281, 865, 306, 654, 638, 3, 113, 169, 220, 512, 31, 828, 466, 653, 362, 849, 104, 867, 247, 515, 563, 673, 543, 720, 51, 535, 501, 620, 107, 708, 82, 47, 52, 979, 163, 685, 56, 606, 218, 600, 739, 677, 541, 718, 3, 55, 238, 452, 764, 27, 206, 525, 325, 83, 284, 27, 15, 840, 316, 716, 247, 740, 884, 18, 603, 909, 770, 122, 731, 755, 161, 658, 624, 200, 821, 857, 75, 472, 589, 9, 518, 938, 333, 495, 938, 874, 953, 91, 1000, 332, 360, 185, 807, 589, 459, 496, 514, 583, 152, 720, 263, 958, 99, 802, 768, 429, 610, 242, 216, 884, 750, 769, 458, 36, 774, 960, 318, 626, 148, 962, 710, 64, 701, 676, 436, 586, 932, 682, 474, 969, 639, 777, 556, 757, 774, 500, 465, 199, 653, 728, 411, 706, 648, 648, ]
Time Consuming: 0.015999317169189453